* ; EXPECT: unsat
* (set-info :smt-lib-version 2.6)
* (set-logic QF_BV)
* (set-info :status unsat)
* 
* (declare-const x (_ BitVec 5))
* (declare-const y (_ BitVec 5))
* (assert (not (=
* 	((_ extract 4 3) (bvxor x y))
* 	(bvxor ((_ extract 4 3) x) ((_ extract 4 3) y))
* 	)))
* (check-sat)
* (exit)
* unsat
* #variable= 25 #constraint= 43
-1 x10 +1 x15 +1 x5 >= 0;
-1 x14 -1 x19 -1 x9 >= -2;
-1 x23 -1 x25 -1 x21 >= -2;
-1 x10 -1 x15 -1 x5 >= -2;
+1 x13 +1 x18 -1 x8 >= 0;
-1 x13 +1 x18 +1 x8 >= 0;
+1 x22 -1 x24 +1 x20 >= 0;
-1 x13 -1 x18 -1 x8 >= -2;
-1 x22 +1 x24 +1 x20 >= 0;
+1 x14 +1 x19 -1 x9 >= 0;
+1 x14 -1 x19 +1 x9 >= 0;
-1 x14 +1 x19 +1 x9 >= 0;
-1 x23 +1 x25 +1 x21 >= 0;
+1 x11 -1 x16 +1 x6 >= 0;
-1 x12 -1 x17 -1 x7 >= -2;
+1 x18 -1 x24 = 0;
+1 x4 -1 x21 +1 x2 >= 0;
+1 x10 +1 x15 -1 x5 >= 0;
+1 x23 +1 x25 -1 x21 >= 0;
-1 x3 -1 x20 -1 x1 >= -2;
-1 x11 +1 x16 +1 x6 >= 0;
+1 x19 -1 x25 = 0;
+1 x23 -1 x25 +1 x21 >= 0;
-1 x22 -1 x24 -1 x20 >= -2;
+1 x13 -1 x22 = 0;
-1 x12 +1 x17 +1 x7 >= 0;
+1 x1 +1 x2 >= 1;
+1 x8 -1 x3 = 0;
-1 x4 -1 x21 -1 x2 >= -2;
+1 x10 -1 x15 +1 x5 >= 0;
+1 x12 -1 x17 +1 x7 >= 0;
-1 x3 +1 x20 +1 x1 >= 0;
+1 x12 +1 x17 -1 x7 >= 0;
-1 x4 +1 x21 +1 x2 >= 0;
+1 x14 -1 x23 = 0;
+1 x3 -1 x20 +1 x1 >= 0;
+1 x13 -1 x18 +1 x8 >= 0;
+1 x22 +1 x24 -1 x20 >= 0;
+1 x3 +1 x20 -1 x1 >= 0;
+1 x11 +1 x16 -1 x6 >= 0;
+1 x9 -1 x4 = 0;
+1 x4 +1 x21 -1 x2 >= 0;
-1 x11 -1 x16 -1 x6 >= -2;
